
Gurobi 12.0.2 (win64) logging started Tue Nov 25 19:38:48 2025

Set parameter LogFile to value "C:\Ioana\_uni\honours\slp\algorithm\Main_files\results\paracetamol_respiration_improved\Task_003_Sample002_irr_gurobi.log"
Gurobi Optimizer version 12.0.2 build v12.0.2rc0 (win64 - Windows 11.0 (26100.2))

CPU model: Intel(R) Core(TM) Ultra 5 125H, instruction set [SSE2|AVX|AVX2]
Thread count: 14 physical cores, 18 logical processors, using up to 18 threads

Non-default parameters:
TimeLimit  2200

Optimize a model with 47236 rows, 34504 columns and 146714 nonzeros
Model fingerprint: 0x982efba7
Variable types: 17255 continuous, 17249 integer (17249 binary)
Coefficient statistics:
  Matrix range     [1e-04, 8e+04]
  Objective range  [1e-04, 9e-01]
  Bounds range     [1e+00, 1e+03]
  RHS range        [1e+00, 1e+00]
Presolve removed 30786 rows and 21551 columns
Presolve time: 0.33s
Presolved: 16450 rows, 12953 columns, 54677 nonzeros
Variable types: 6410 continuous, 6543 integer (6543 binary)

Root relaxation: objective 1.615626e-04, 674 iterations, 0.03 seconds (0.05 work units)

    Nodes    |    Current Node    |     Objective Bounds      |     Work
 Expl Unexpl |  Obj  Depth IntInf | Incumbent    BestBd   Gap | It/Node Time

     0     0    0.00016    0   12          -    0.00016      -     -    0s
H    0     0                       0.1253786    0.00016   100%     -    0s
H    0     0                       0.1104260    0.00016   100%     -    0s
     0     0    0.04243    0   20    0.11043    0.04243  61.6%     -    0s
     0     0    0.05921    0    9    0.11043    0.05921  46.4%     -    0s
     0     0          -    0         0.11043    0.11042  0.01%     -    0s

Cutting planes:
  Gomory: 2
  Cover: 5
  Implied bound: 3
  MIR: 2
  Flow cover: 3
  Flow path: 5
  Relax-and-lift: 2

Explored 1 nodes (2402 simplex iterations) in 0.99 seconds (1.02 work units)
Thread count was 18 (of 18 available processors)

Solution count 2: 0.110426 0.125379 

Optimal solution found (tolerance 1.00e-04)
Best objective 1.104259713478e-01, best bound 1.104150737524e-01, gap 0.0099%
